p cnf 22 44
2 3 -1 0
-2 -3 -1 0
2 -3 1 0
-2 3 1 0
5 6 -4 0
-5 -6 -4 0
5 -6 4 0
-5 6 4 0
-2 7 0
-8 0
-3 9 0
-7 9 0
-8 10 0
-3 -7 10 0
-3 -8 0
-5 11 0
-9 11 0
-10 12 0
-5 -9 12 0
-5 -10 0
-6 13 0
-11 13 0
-12 14 0
-6 -11 14 0
-6 -12 0
2 15 0
-16 0
3 17 0
-15 17 0
-16 18 0
3 -15 18 0
3 -16 0
5 19 0
-17 19 0
-18 20 0
5 -17 20 0
5 -18 0
6 21 0
-19 21 0
-20 22 0
6 -19 22 0
6 -20 0
-1 0
-4 0
